nNurses = 175;
nHours = 36;
minHours = 5;
maxHours = 17;
maxConsec = 17;
maxPresence = 21;
demand = [5, 9, 14, 17, 16, 15, 16, 17, 19, 15, 20, 25, 26, 31, 26, 31, 29, 33, 34, 31, 36, 40, 35, 36, 37, 34, 33, 30, 33, 31, 31, 29, 27, 29, 31, 30];
